K=5;
N=7;
P=[28 17 47 10 31];
R=[19 9 28 41 27];
A=[6 5 2 4 2];
C=[48 28 45 4 42];
M=[
	[0 14 16 13 11 5 23]
	[14 0 44 48 49 4 35]
	[16 44 0 50 8 36 16]
	[13 48 50 0 9 6 25]
	[11 49 8 9 0 47 25]
	[5 4 36 6 47 0 4]
	[23 35 16 25 25 4 0]
];